11636503867586611945010,8,1,2,03,13,1,2,012,10,1,2,013,15,1,2,010,13,1,2,05,13,1,2,08,2,1,2,02,3,1,2,04,6,1,2,012,11,1,2,05,10,1,2,01,14,1,2,02,14,1,2,06,3,1,2,015,9,1,2,011,3,1,2,01,9,1,2,015,8,1,2,04,5,1,2,010,11,1,2,06,14,1,2,07,4,1,2,02,5,1,2,014,4,1,2,01,12,1,2,01,10,1,2,05,14,1,2,011,14,1,2,09,13,1,2,014,5,1,2,011,3,1,2,08,9,1,2,012,2,1,2,01,1,1,2,010,6,1,2,02,5,1,2,07,10,1,2,02,3,1,2,01,12,1,2,09,14,1,2,06,11,1,2,03,11,1,2,02,12,1,2,05,13,1,2,05,9,1,2,08,6,1,2,01,7,1,2,09,3,1,2,05,13,1,2,04,13,1,2,0